17	4
12	8	13	10	
0	0	0	0	0	3	2	3	4	
9	0	0	8	0	3	13	17	17	
3	1	0	0	0	3	5	6	11	
3	0	0	8	0	3	15	17	17	
6	0	0	0	8	2	17	17	
150	0	0	0	2	2	7	10	
225	0	0	0	3	3	8	9	17	
175	0	0	0	8	1	16	
250	0	0	0	2	3	12	16	17	
25	1	0	0	0	2	14	17	
200	0	0	0	2	1	17	
175	0	0	0	8	1	17	
5	9	0	0	0	1	17	
4	0	0	0	1	1	17	
7	0	1	0	0	1	17	
9	0	4	0	0	1	17	
0	0	0	0	0	0	
